solution status: optimal solution found
objective value:                                    0
$_55_y                                             24 	(obj:0)
$_55_z                                             21 	(obj:0)
$_16_y                                             25 	(obj:0)
$_16_z                                             24 	(obj:0)
$_6_y                                              22 	(obj:0)
$_6_z                                              22 	(obj:0)
$_92_y                                             23 	(obj:0)
$_92_z                                             23 	(obj:0)
$_115_y                                            24 	(obj:0)
$_115_z                                            23 	(obj:0)
$_58_y                                             25 	(obj:0)
$_58_z                                             23 	(obj:0)
$_38_y                                             24 	(obj:0)
$_38_z                                             24 	(obj:0)
$_40_y                                             23 	(obj:0)
$_40_z                                             24 	(obj:0)
$_56_y                                             24 	(obj:0)
$_56_z                                             22 	(obj:0)
$_18_y                                             25 	(obj:0)
$_18_z                                             22 	(obj:0)
$_57_y                                             23 	(obj:0)
$_57_z                                             22 	(obj:0)
$_39_y                                             24 	(obj:0)
$_39_z                                             25 	(obj:0)
$_17_y                                             23 	(obj:0)
$_17_z                                             25 	(obj:0)
